c defined variables: 
p cnf 86 57
a 1 2 3 4 5 6 7 8 9 10 11 12 13 14 0
d 15 5 0
d 16 1 0
d 17 3 12 13 0
d 18 1 5 0
d 19 2 7 14 0
d 20 5 0
d 21 1 8 11 12 14 0
d 22 4 5 8 14 0
d 23 2 3 9 10 13 0
d 24 1 5 6 10 12 14 0
d 25 6 0
d 26 3 8 11 13 0
d 27 1 4 14 0
d 28 2 5 6 0
3 5 16 -17 -18 0
-2 -7 17 18 19 0
-1 -11 -15 17 -21 0
-8 -14 -16 -18 -21 0
5 12 -16 20 -21 0
1 8 -15 18 21 0
1 5 -15 -18 22 0
2 -5 -15 19 22 0
7 14 -15 19 22 0
-5 8 15 -20 22 0
2 -5 -17 20 -23 0
-10 -13 -15 21 -23 0
3 9 19 -20 23 0
-5 13 18 -21 23 0
-9 -10 -17 22 23 0
3 -9 -21 22 23 0
10 12 21 22 23 0
3 -6 -17 22 -24 0
-5 6 -17 23 -24 0
-2 -5 -18 19 24 0
-10 14 -18 -21 24 0
-5 11 20 21 24 0
-6 -12 -15 22 24 0
-8 10 19 22 24 0
-3 9 -19 -23 24 0
-3 9 20 23 24 0
6 8 19 -22 -25 0
-5 7 15 -19 25 0
7 14 16 19 25 0
-11 -12 -20 21 25 0
-1 -11 20 21 25 0
3 9 -22 23 25 0
-7 -11 -19 -22 -26 0
-5 -8 19 -22 -26 0
-10 14 -22 -23 -26 0
-6 -12 -22 -24 26 0
-7 8 -19 -25 26 0
-3 14 24 -25 26 0
-3 -14 -17 20 -27 0
-3 4 19 23 -27 0
8 12 16 -21 27 0
1 14 -17 22 27 0
-2 3 17 -23 27 0
1 -4 24 25 27 0
5 -7 15 19 -28 0
-6 12 16 -21 -28 0
3 8 -22 -23 -28 0
10 13 21 23 -28 0
2 -7 -19 -27 -28 0
6 11 -16 -21 28 0
2 12 18 -21 28 0
-12 14 -20 24 28 0
-2 -7 -19 -26 28 0
-3 13 15 26 28 0
-4 13 -17 -27 28 0
-2 8 22 -27 28 0
-6 -14 20 27 28 0
